p cnf 12 50 
2 10 5 0
1 -12 -9 0
3 -10 -9 0
-1 -10 -5 0
-5 -7 3 0
-4 1 -3 0
-8 -6 -10 0
4 7 1 0
11 3 6 0
1 5 9 0
-12 -7 -6 0
-2 -5 8 0
9 -8 12 0
8 5 7 0
-11 -7 -4 0
8 -3 -6 0
4 -2 7 0
7 1 -12 0
11 -12 1 0
-1 -8 -7 0
9 12 -8 0
12 -6 -1 0
-11 -7 -6 0
-3 -10 8 0
-7 -5 -11 0
10 -9 6 0
11 -12 -5 0
3 -8 -12 0
11 4 -2 0
4 -5 2 0
-4 5 6 0
-4 -2 -1 0
-11 -10 -6 0
-11 -8 -3 0
-2 3 -11 0
-8 -11 3 0
-9 6 -4 0
-5 10 4 0
-11 8 4 0
-11 3 4 0
-7 10 12 0
-6 -2 5 0
-8 -4 -5 0
-7 4 6 0
-9 -5 7 0
-3 -10 1 0
-11 -1 2 0
4 -8 1 0
-12 6 -4 0
4 3 5 0
